experiment/data/hgs-res/Vrp-Set-Golden-n321/Vrp-Set-Golden-n321-hgs/1.hgs1.tour
Route #1: 27 67 66 65 105 145 144 184 224 264 304 303 263 223 222 262 302 301 261 221 220 260 300 299 259 219 179 180 181 182 183 143 103 104 64 24
Route #2: 28 68 108 107 106 146 147 148 188 187 186 185 225 265 305 306 266 226 227 267 307 308 268 228 229 269 309 310 270 230 190 189 149 109 69 30
Route #3: 32 71 111 112 152 192 193 194 195 196 236 276 316 315 275 235 234 274 314 313 273 233 232 272 312 311 271 231 191 151 150 110 70 29
Route #4: 31 72 113 153 154 155 156 157 158 198 197 237 277 317 318 278 238 239 279 319 320 280 240 200 199 159 160 120 119 118 117 116 115 114 73 33
Route #5: 3 4 5 6 7 47 46 45 44 43 42 41 80 79 78 77 76 75 74 34 35 36 37 38 39 40 1 2
Route #6: 8 48 87 86 85 84 83 82 81 121 161 201 241 281 282 242 202 203 243 283 284 244 204 164 163 162 122 123 124 125 126 127 128 88 49 10
Route #7: 9 50 90 89 129 169 168 167 166 165 205 245 285 286 246 206 207 247 287 288 248 208 209 249 289 290 250 210 170 130 131 91 51
Route #8: 52 92 132 172 171 211 251 291 292 252 212 213 253 293 294 254 214 215 255 295 296 256 216 217 257 297 298 258 218 178 177 176 175 174 173 133 93 53
Route #9: 26 25 63 62 61 60 59 58 98 99 100 101 102 142 141 140 139 138 137 136 135 134 94 95 96 97 57 56 55 54 13 12 11
Route #10: 14 15 16 17 18 19 20 21 22 23
Cost 8228.08
